#######################
Slurm job id: 17497813_123
Running on machine: p32
Running cmd: /nfs/shared/static-builds/gurobi1003 SOFTMEMLIMIT=125 MIPFocus=3 Presolve=1 TimeLimit=300 seed=2 /nfs/models/miplib2010/k16x240.mps.bz2
#######################
Set parameter TimeLimit to value 300
Set parameter SoftMemLimit to value 125
Set parameter MIPFocus to value 3
Set parameter LogFile to value 1003-MIPFocus3-Presolve1-TimeLimit300-k16x240-2.log
Set parameter Presolve to value 1
Set parameter Seed to value 2
Using license file /opt/gurobi/gurobi.lic

Gurobi Optimizer version 10.0.3 build v10.0.3rc0 (linux64)
Copyright (c) 2023, Gurobi Optimization, LLC

Read MPS format model from file /nfs/models/miplib2010/k16x240.mps.bz2
Reading time = 0.00 seconds
k16x240: 256 rows, 480 columns, 960 nonzeros

CPU model: Intel(R) Xeon(R) E-2388G CPU @ 3.20GHz, instruction set [SSE2|AVX|AVX2|AVX512]
Thread count: 8 physical cores, 16 logical processors, using up to 16 threads

Optimize a model with 256 rows, 480 columns and 960 nonzeros
Model fingerprint: 0x4e80885f
Variable types: 240 continuous, 240 integer (240 binary)
Coefficient statistics:
  Matrix range     [1e+00, 1e+03]
  Objective range  [1e+00, 1e+03]
  Bounds range     [1e+00, 1e+03]
  RHS range        [4e+00, 4e+02]
Found heuristic solution: objective 20929.000000
Presolve time: 0.00s
Presolved: 256 rows, 480 columns, 960 nonzeros
Variable types: 240 continuous, 240 integer (240 binary)

Root relaxation: objective 2.769838e+03, 51 iterations, 0.00 seconds (0.00 work units)

    Nodes    |    Current Node    |     Objective Bounds      |     Work
 Expl Unexpl |  Obj  Depth IntInf | Incumbent    BestBd   Gap | It/Node Time

     0     0 2769.83800    0   14 20929.0000 2769.83800  86.8%     -    0s
H    0     0                    11359.000000 2769.83800  75.6%     -    0s
H    0     0                    11195.000000 2769.83800  75.3%     -    0s
H    0     0                    11074.000000 8116.87580  26.7%     -    0s
H    0     0                    10916.000000 8116.87580  25.6%     -    0s
     0     0 8116.87580    0   26 10916.0000 8116.87580  25.6%     -    0s
H    0     0                    10826.000000 8116.87580  25.0%     -    0s
H    0     0                    10806.000000 8646.43730  20.0%     -    0s
     0     0 8742.09840    0   29 10806.0000 8742.09840  19.1%     -    0s
     0     0 8985.23526    0   27 10806.0000 8985.23526  16.8%     -    0s
H    0     0                    10804.000000 8985.23526  16.8%     -    0s
     0     0 9000.52134    0   32 10804.0000 9000.52134  16.7%     -    0s
     0     0 9002.14290    0   36 10804.0000 9002.14290  16.7%     -    0s
     0     0 9002.14290    0   37 10804.0000 9002.14290  16.7%     -    0s
     0     0 9110.43128    0   40 10804.0000 9110.43128  15.7%     -    0s
H    0     0                    10746.000000 9184.61330  14.5%     -    0s
     0     0 9200.58954    0   33 10746.0000 9200.58954  14.4%     -    0s
     0     0 9253.84823    0   43 10746.0000 9253.84823  13.9%     -    0s
     0     0 9306.29500    0   37 10746.0000 9306.29500  13.4%     -    0s
     0     0 9306.29500    0   37 10746.0000 9306.29500  13.4%     -    0s
     0     2 9306.29500    0   37 10746.0000 9306.29500  13.4%     -    0s
H   33    40                    10674.000000 9401.31547  11.9%  94.5    0s
  5367  3570 10293.7824   31   33 10674.0000 10276.9945  3.72%  74.3    5s
 22749 12096 10553.8776   27   23 10674.0000 10504.0904  1.59%  53.5   10s

Cutting planes:
  Gomory: 3
  Lift-and-project: 7
  Implied bound: 8
  MIR: 146
  Flow cover: 473
  Flow path: 35
  Zero half: 36
  Network: 21
  Relax-and-lift: 5

Explored 57759 nodes (1949357 simplex iterations) in 14.42 seconds (19.81 work units)
Thread count was 16 (of 16 available processors)

Solution count 10: 10674 10746 10804 ... 20929

Optimal solution found (tolerance 1.00e-04)
Best objective 1.067400000000e+04, best bound 1.067305320771e+04, gap 0.0089%
